(set-logic HORN)
(set-info :source |
    Benchmark: C_VC
    Output by Princess (http://www.philipp.ruemmer.org/princess.shtml)
|)
(set-info :status unknown)
(declare-fun inv_main13 (Int Int Int Int Int) Bool)
(declare-fun inv_main20 (Int Int Int Int Int Int) Bool)
(declare-fun inv_main4 (Int Int) Bool)
(assert (forall ((var0 Int)) (forall ((var1 Int)) (inv_main4 var1 var0 ) ) ) )
(assert (forall ((var0 Int)) (forall ((var1 Int)) (forall ((var2 Int)) (forall ((var3 Int)) (forall ((var4 Int)) (or (not (and (inv_main13 var0 var2 var1 var3 var4 ) (and (not (<= 0 (+ (+ (+ (+ var1 var3 ) var4 ) (* (- 2) var0 ) ) (- 1) ) ) ) (not (<= 0 (+ var0 (* (- 1) var3 ) ) ) ) ) ) ) (inv_main20 var0 var2 var1 var3 var4 (+ (+ var1 var3 ) var4 ) ) ) ) ) ) ) ) )
(assert (forall ((var0 Int)) (forall ((var1 Int)) (forall ((var2 Int)) (forall ((var3 Int)) (forall ((var4 Int)) (or (not (and (inv_main13 var0 var2 var1 var3 var4 ) (<= 0 (+ var0 (* (- 1) var3 ) ) ) ) ) (inv_main13 var0 var2 var1 (+ var3 1 ) (+ var4 (+ var3 1 ) ) ) ) ) ) ) ) ) )
(assert (forall ((var0 Int)) (forall ((var1 Int)) (or (not (and (inv_main4 var0 var1 ) (and (= var1 0 ) (<= 0 var0 ) ) ) ) (inv_main13 var0 var1 1 0 0 ) ) ) ) )
(assert (forall ((var0 Int)) (forall ((var1 Int)) (forall ((var2 Int)) (or (not (and (inv_main4 var0 var2 ) (and (and (<= 0 var1 ) (not (= var2 0 ) ) ) (<= 0 var0 ) ) ) ) (inv_main13 var0 var2 var1 0 0 ) ) ) ) ) )
(assert (forall ((var0 Int)) (forall ((var1 Int)) (forall ((var2 Int)) (forall ((var3 Int)) (forall ((var4 Int)) (forall ((var5 Int)) (not (inv_main20 var0 var3 var2 var4 var5 var1 ) ) ) ) ) ) ) ) )
(check-sat)
